c File: data_files/evolved_graphs/g3846.col
c
c Auto generated graph
c
p edge 100 2499
e 1 4
e 1 5
e 1 7
e 1 13
e 1 15
e 1 18
e 1 20
e 1 21
e 1 22
e 1 24
e 1 26
e 1 28
e 1 30
e 1 31
e 1 32
e 1 38
e 1 40
e 1 41
e 1 42
e 1 43
e 1 44
e 1 45
e 1 48
e 1 49
e 1 50
e 1 57
e 1 58
e 1 60
e 1 61
e 1 63
e 1 65
e 1 66
e 1 68
e 1 69
e 1 70
e 1 71
e 1 72
e 1 73
e 1 78
e 1 80
e 1 81
e 1 93
e 2 3
e 2 9
e 2 10
e 2 24
e 2 25
e 2 26
e 2 28
e 2 29
e 2 30
e 2 31
e 2 32
e 2 33
e 2 34
e 2 35
e 2 38
e 2 40
e 2 41
e 2 42
e 2 43
e 2 45
e 2 49
e 2 50
e 2 51
e 2 52
e 2 53
e 2 57
e 2 58
e 2 59
e 2 60
e 2 61
e 2 62
e 2 64
e 2 65
e 2 66
e 2 68
e 2 70
e 2 72
e 2 73
e 2 74
e 2 77
e 2 78
e 2 80
e 2 98
e 3 6
e 3 8
e 3 10
e 3 20
e 3 25
e 3 27
e 3 28
e 3 30
e 3 32
e 3 35
e 3 38
e 3 39
e 3 40
e 3 43
e 3 45
e 3 47
e 3 48
e 3 49
e 3 50
e 3 51
e 3 56
e 3 57
e 3 58
e 3 60
e 3 62
e 3 63
e 3 64
e 3 65
e 3 68
e 3 70
e 3 71
e 3 72
e 3 73
e 3 74
e 3 76
e 3 77
e 3 81
e 3 93
e 4 5
e 4 10
e 4 21
e 4 22
e 4 25
e 4 26
e 4 32
e 4 33
e 4 34
e 4 36
e 4 37
e 4 39
e 4 40
e 4 41
e 4 42
e 4 43
e 4 44
e 4 45
e 4 46
e 4 47
e 4 48
e 4 49
e 4 50
e 4 51
e 4 53
e 4 54
e 4 56
e 4 57
e 4 59
e 4 60
e 4 62
e 4 65
e 4 66
e 4 67
e 4 68
e 4 69
e 4 71
e 4 72
e 4 73
e 4 75
e 4 76
e 4 77
e 4 78
e 4 79
e 4 81
e 4 87
e 4 91
e 4 92
e 5 20
e 5 21
e 5 22
e 5 23
e 5 24
e 5 25
e 5 26
e 5 29
e 5 31
e 5 32
e 5 36
e 5 37
e 5 40
e 5 43
e 5 46
e 5 49
e 5 50
e 5 52
e 5 54
e 5 57
e 5 58
e 5 59
e 5 60
e 5 61
e 5 62
e 5 63
e 5 64
e 5 68
e 5 69
e 5 71
e 5 72
e 5 73
e 5 74
e 5 75
e 5 77
e 5 79
e 5 80
e 5 81
e 5 87
e 5 90
e 5 95
e 5 97
e 5 100
e 6 8
e 6 10
e 6 11
e 6 15
e 6 20
e 6 21
e 6 22
e 6 23
e 6 24
e 6 27
e 6 28
e 6 29
e 6 30
e 6 31
e 6 34
e 6 35
e 6 36
e 6 37
e 6 39
e 6 40
e 6 42
e 6 43
e 6 44
e 6 45
e 6 46
e 6 49
e 6 50
e 6 51
e 6 52
e 6 54
e 6 55
e 6 56
e 6 57
e 6 58
e 6 59
e 6 60
e 6 62
e 6 63
e 6 64
e 6 66
e 6 73
e 6 74
e 6 75
e 6 77
e 6 78
e 6 79
e 7 8
e 7 9
e 7 11
e 7 17
e 7 20
e 7 21
e 7 22
e 7 25
e 7 26
e 7 29
e 7 31
e 7 32
e 7 33
e 7 34
e 7 36
e 7 39
e 7 40
e 7 43
e 7 44
e 7 45
e 7 47
e 7 49
e 7 50
e 7 51
e 7 52
e 7 53
e 7 54
e 7 57
e 7 58
e 7 60
e 7 62
e 7 63
e 7 65
e 7 66
e 7 67
e 7 69
e 7 70
e 7 71
e 7 73
e 7 77
e 7 78
e 7 79
e 7 83
e 7 85
e 7 96
e 7 98
e 8 10
e 8 20
e 8 21
e 8 22
e 8 24
e 8 25
e 8 27
e 8 28
e 8 30
e 8 32
e 8 33
e 8 34
e 8 35
e 8 36
e 8 37
e 8 38
e 8 39
e 8 40
e 8 43
e 8 45
e 8 46
e 8 47
e 8 48
e 8 49
e 8 51
e 8 52
e 8 55
e 8 56
e 8 58
e 8 59
e 8 60
e 8 61
e 8 62
e 8 64
e 8 65
e 8 66
e 8 68
e 8 69
e 8 70
e 8 71
e 8 72
e 8 73
e 8 74
e 8 77
e 8 78
e 8 79
e 8 80
e 8 81
e 9 11
e 9 19
e 9 22
e 9 23
e 9 24
e 9 25
e 9 26
e 9 27
e 9 28
e 9 29
e 9 30
e 9 31
e 9 33
e 9 37
e 9 38
e 9 39
e 9 40
e 9 41
e 9 44
e 9 45
e 9 46
e 9 47
e 9 48
e 9 49
e 9 51
e 9 52
e 9 53
e 9 54
e 9 55
e 9 56
e 9 57
e 9 58
e 9 61
e 9 62
e 9 63
e 9 64
e 9 65
e 9 66
e 9 67
e 9 68
e 9 70
e 9 71
e 9 72
e 9 73
e 9 74
e 9 75
e 9 77
e 9 78
e 9 79
e 9 80
e 9 90
e 10 21
e 10 22
e 10 23
e 10 24
e 10 29
e 10 30
e 10 31
e 10 32
e 10 34
e 10 36
e 10 38
e 10 39
e 10 40
e 10 43
e 10 44
e 10 46
e 10 48
e 10 50
e 10 51
e 10 53
e 10 54
e 10 55
e 10 60
e 10 61
e 10 62
e 10 63
e 10 65
e 10 66
e 10 67
e 10 69
e 10 70
e 10 72
e 10 75
e 10 76
e 10 77
e 10 78
e 10 80
e 10 81
e 10 89
e 10 90
e 10 98
e 11 19
e 11 20
e 11 21
e 11 25
e 11 26
e 11 27
e 11 28
e 11 29
e 11 30
e 11 31
e 11 33
e 11 36
e 11 38
e 11 39
e 11 41
e 11 43
e 11 45
e 11 47
e 11 48
e 11 49
e 11 50
e 11 51
e 11 53
e 11 54
e 11 56
e 11 57
e 11 59
e 11 60
e 11 61
e 11 63
e 11 64
e 11 66
e 11 67
e 11 68
e 11 71
e 11 72
e 11 73
e 11 75
e 11 77
e 11 78
e 11 79
e 11 80
e 11 100
e 12 13
e 12 27
e 12 31
e 12 33
e 12 37
e 12 43
e 12 50
e 12 79
e 12 85
e 12 95
e 13 15
e 13 17
e 13 19
e 13 21
e 13 28
e 13 53
e 13 54
e 13 57
e 13 61
e 13 73
e 13 76
e 13 94
e 14 15
e 14 17
e 14 30
e 14 32
e 14 33
e 14 54
e 14 55
e 14 58
e 14 72
e 14 73
e 14 88
e 14 89
e 14 93
e 14 94
e 15 18
e 15 33
e 15 36
e 15 42
e 15 46
e 15 47
e 15 55
e 15 60
e 15 66
e 15 73
e 16 19
e 16 20
e 16 21
e 16 22
e 16 23
e 16 26
e 16 28
e 16 30
e 16 34
e 16 36
e 16 37
e 16 41
e 16 42
e 16 44
e 16 46
e 16 47
e 16 48
e 16 49
e 16 50
e 16 53
e 16 55
e 16 57
e 16 61
e 16 63
e 16 64
e 16 65
e 16 66
e 16 68
e 16 71
e 16 73
e 16 75
e 16 76
e 16 77
e 16 79
e 16 83
e 16 85
e 16 86
e 16 90
e 16 92
e 16 94
e 16 96
e 16 97
e 16 98
e 16 100
e 17 20
e 17 21
e 17 22
e 17 23
e 17 29
e 17 31
e 17 35
e 17 37
e 17 38
e 17 39
e 17 40
e 17 43
e 17 44
e 17 46
e 17 47
e 17 50
e 17 51
e 17 53
e 17 56
e 17 57
e 17 59
e 17 61
e 17 66
e 17 70
e 17 71
e 17 72
e 17 73
e 17 74
e 17 77
e 17 78
e 17 79
e 17 80
e 17 81
e 17 82
e 17 83
e 17 84
e 17 85
e 17 86
e 17 91
e 17 93
e 17 94
e 17 95
e 17 97
e 17 99
e 18 20
e 18 21
e 18 25
e 18 26
e 18 27
e 18 28
e 18 29
e 18 30
e 18 31
e 18 32
e 18 33
e 18 35
e 18 37
e 18 40
e 18 41
e 18 43
e 18 45
e 18 46
e 18 47
e 18 50
e 18 51
e 18 53
e 18 55
e 18 56
e 18 59
e 18 62
e 18 63
e 18 68
e 18 69
e 18 70
e 18 73
e 18 76
e 18 78
e 18 80
e 18 81
e 18 85
e 18 86
e 18 87
e 18 88
e 18 90
e 18 93
e 18 95
e 18 96
e 18 97
e 18 98
e 18 100
e 19 20
e 19 22
e 19 23
e 19 24
e 19 29
e 19 31
e 19 32
e 19 33
e 19 34
e 19 35
e 19 36
e 19 37
e 19 39
e 19 40
e 19 41
e 19 45
e 19 46
e 19 49
e 19 50
e 19 53
e 19 57
e 19 58
e 19 64
e 19 67
e 19 68
e 19 69
e 19 70
e 19 74
e 19 77
e 19 83
e 19 85
e 19 86
e 19 87
e 19 88
e 19 90
e 19 92
e 19 94
e 19 96
e 19 99
e 19 100
e 20 22
e 20 25
e 20 26
e 20 27
e 20 30
e 20 35
e 20 36
e 20 37
e 20 40
e 20 41
e 20 43
e 20 48
e 20 49
e 20 50
e 20 52
e 20 55
e 20 56
e 20 57
e 20 58
e 20 59
e 20 63
e 20 64
e 20 65
e 20 66
e 20 67
e 20 70
e 20 71
e 20 72
e 20 73
e 20 74
e 20 75
e 20 76
e 20 78
e 20 83
e 20 85
e 20 86
e 20 88
e 20 91
e 20 92
e 20 93
e 20 94
e 20 95
e 20 96
e 20 97
e 20 99
e 20 100
e 21 23
e 21 26
e 21 27
e 21 28
e 21 29
e 21 31
e 21 32
e 21 33
e 21 34
e 21 35
e 21 37
e 21 42
e 21 44
e 21 45
e 21 46
e 21 49
e 21 51
e 21 52
e 21 53
e 21 55
e 21 56
e 21 58
e 21 59
e 21 63
e 21 64
e 21 65
e 21 67
e 21 68
e 21 69
e 21 71
e 21 72
e 21 73
e 21 75
e 21 76
e 21 77
e 21 78
e 21 81
e 21 82
e 21 83
e 21 88
e 21 89
e 21 93
e 21 94
e 21 96
e 21 99
e 22 23
e 22 24
e 22 25
e 22 26
e 22 27
e 22 29
e 22 38
e 22 40
e 22 44
e 22 45
e 22 46
e 22 47
e 22 49
e 22 51
e 22 52
e 22 53
e 22 55
e 22 57
e 22 58
e 22 61
e 22 63
e 22 67
e 22 68
e 22 69
e 22 71
e 22 74
e 22 77
e 22 78
e 22 81
e 22 84
e 22 87
e 22 89
e 22 94
e 22 95
e 22 99
e 23 24
e 23 25
e 23 27
e 23 29
e 23 30
e 23 39
e 23 41
e 23 42
e 23 43
e 23 44
e 23 47
e 23 48
e 23 54
e 23 56
e 23 57
e 23 58
e 23 60
e 23 65
e 23 66
e 23 67
e 23 70
e 23 71
e 23 72
e 23 74
e 23 77
e 23 80
e 23 81
e 23 84
e 23 85
e 23 89
e 23 91
e 23 92
e 23 96
e 23 98
e 23 100
e 24 26
e 24 27
e 24 28
e 24 36
e 24 37
e 24 38
e 24 40
e 24 43
e 24 44
e 24 45
e 24 50
e 24 53
e 24 58
e 24 59
e 24 66
e 24 67
e 24 71
e 24 72
e 24 73
e 24 82
e 24 83
e 24 84
e 24 86
e 24 90
e 24 91
e 24 92
e 24 93
e 24 94
e 24 95
e 24 96
e 24 98
e 24 99
e 24 100
e 25 27
e 25 29
e 25 30
e 25 31
e 25 32
e 25 34
e 25 35
e 25 36
e 25 37
e 25 40
e 25 41
e 25 42
e 25 44
e 25 47
e 25 48
e 25 51
e 25 52
e 25 54
e 25 57
e 25 58
e 25 60
e 25 61
e 25 62
e 25 63
e 25 67
e 25 70
e 25 71
e 25 74
e 25 75
e 25 76
e 25 78
e 25 79
e 25 80
e 25 81
e 25 82
e 25 83
e 25 85
e 25 86
e 25 87
e 25 88
e 25 89
e 25 90
e 25 93
e 25 95
e 25 96
e 25 97
e 25 98
e 25 99
e 26 27
e 26 28
e 26 30
e 26 31
e 26 33
e 26 35
e 26 36
e 26 37
e 26 41
e 26 42
e 26 43
e 26 44
e 26 45
e 26 46
e 26 48
e 26 52
e 26 53
e 26 54
e 26 56
e 26 59
e 26 61
e 26 63
e 26 64
e 26 66
e 26 67
e 26 69
e 26 70
e 26 71
e 26 73
e 26 75
e 26 76
e 26 77
e 26 78
e 26 81
e 26 82
e 26 86
e 26 87
e 26 90
e 26 93
e 26 95
e 26 98
e 26 99
e 26 100
e 27 28
e 27 29
e 27 30
e 27 31
e 27 34
e 27 35
e 27 36
e 27 37
e 27 38
e 27 39
e 27 42
e 27 43
e 27 45
e 27 49
e 27 51
e 27 53
e 27 54
e 27 55
e 27 57
e 27 59
e 27 60
e 27 64
e 27 66
e 27 67
e 27 70
e 27 73
e 27 76
e 27 78
e 27 80
e 27 82
e 27 83
e 27 84
e 27 85
e 27 86
e 27 87
e 27 88
e 27 90
e 27 91
e 27 92
e 27 94
e 27 95
e 27 97
e 27 98
e 27 99
e 27 100
e 28 30
e 28 32
e 28 35
e 28 39
e 28 40
e 28 44
e 28 47
e 28 48
e 28 49
e 28 50
e 28 53
e 28 54
e 28 56
e 28 57
e 28 58
e 28 59
e 28 63
e 28 64
e 28 66
e 28 67
e 28 68
e 28 69
e 28 70
e 28 71
e 28 72
e 28 73
e 28 74
e 28 76
e 28 77
e 28 80
e 28 81
e 28 83
e 28 85
e 28 87
e 28 89
e 28 90
e 28 94
e 28 95
e 28 96
e 28 97
e 28 98
e 28 99
e 29 30
e 29 34
e 29 37
e 29 38
e 29 40
e 29 44
e 29 46
e 29 49
e 29 50
e 29 52
e 29 54
e 29 55
e 29 56
e 29 58
e 29 61
e 29 62
e 29 64
e 29 68
e 29 69
e 29 70
e 29 73
e 29 76
e 29 78
e 29 80
e 29 81
e 29 84
e 29 86
e 29 87
e 29 90
e 29 94
e 29 96
e 29 97
e 29 98
e 29 100
e 30 32
e 30 35
e 30 36
e 30 39
e 30 42
e 30 44
e 30 46
e 30 47
e 30 48
e 30 49
e 30 50
e 30 51
e 30 58
e 30 60
e 30 62
e 30 63
e 30 64
e 30 66
e 30 67
e 30 68
e 30 69
e 30 73
e 30 75
e 30 78
e 30 79
e 30 80
e 30 82
e 30 83
e 30 86
e 30 87
e 30 89
e 30 91
e 30 93
e 30 95
e 30 96
e 30 97
e 30 98
e 30 99
e 30 100
e 31 33
e 31 34
e 31 35
e 31 36
e 31 37
e 31 38
e 31 39
e 31 42
e 31 46
e 31 47
e 31 51
e 31 56
e 31 58
e 31 61
e 31 65
e 31 67
e 31 68
e 31 69
e 31 70
e 31 72
e 31 73
e 31 75
e 31 77
e 31 79
e 31 81
e 31 82
e 31 86
e 31 87
e 31 89
e 31 94
e 31 95
e 31 98
e 31 99
e 32 33
e 32 34
e 32 37
e 32 41
e 32 42
e 32 43
e 32 44
e 32 45
e 32 46
e 32 47
e 32 48
e 32 51
e 32 52
e 32 56
e 32 58
e 32 59
e 32 60
e 32 64
e 32 66
e 32 68
e 32 71
e 32 74
e 32 75
e 32 76
e 32 77
e 32 80
e 32 84
e 32 85
e 32 86
e 32 87
e 32 90
e 32 92
e 32 94
e 32 95
e 32 96
e 32 97
e 32 98
e 32 99
e 33 36
e 33 38
e 33 39
e 33 40
e 33 41
e 33 42
e 33 44
e 33 45
e 33 46
e 33 48
e 33 50
e 33 51
e 33 52
e 33 53
e 33 54
e 33 55
e 33 56
e 33 57
e 33 58
e 33 59
e 33 61
e 33 62
e 33 63
e 33 65
e 33 66
e 33 69
e 33 72
e 33 73
e 33 74
e 33 75
e 33 76
e 33 78
e 33 79
e 33 80
e 33 86
e 33 88
e 33 91
e 33 92
e 33 94
e 33 95
e 33 97
e 33 98
e 33 99
e 34 36
e 34 37
e 34 40
e 34 41
e 34 43
e 34 44
e 34 46
e 34 52
e 34 53
e 34 59
e 34 60
e 34 64
e 34 65
e 34 68
e 34 69
e 34 70
e 34 71
e 34 73
e 34 77
e 34 78
e 34 80
e 34 82
e 34 84
e 34 86
e 34 87
e 34 91
e 34 92
e 34 93
e 34 94
e 34 95
e 34 98
e 34 100
e 35 36
e 35 37
e 35 41
e 35 42
e 35 43
e 35 47
e 35 48
e 35 49
e 35 51
e 35 52
e 35 54
e 35 57
e 35 59
e 35 61
e 35 63
e 35 64
e 35 65
e 35 67
e 35 68
e 35 69
e 35 70
e 35 71
e 35 72
e 35 75
e 35 76
e 35 77
e 35 78
e 35 79
e 35 80
e 35 83
e 35 84
e 35 85
e 35 86
e 35 90
e 35 92
e 35 94
e 35 95
e 35 100
e 36 37
e 36 38
e 36 39
e 36 40
e 36 41
e 36 43
e 36 47
e 36 49
e 36 50
e 36 51
e 36 52
e 36 53
e 36 54
e 36 55
e 36 57
e 36 58
e 36 61
e 36 62
e 36 63
e 36 66
e 36 67
e 36 69
e 36 72
e 36 73
e 36 74
e 36 75
e 36 77
e 36 78
e 36 79
e 36 80
e 36 82
e 36 83
e 36 84
e 36 86
e 36 88
e 36 89
e 36 91
e 36 93
e 36 94
e 36 98
e 37 38
e 37 41
e 37 43
e 37 44
e 37 45
e 37 46
e 37 47
e 37 48
e 37 49
e 37 51
e 37 52
e 37 54
e 37 55
e 37 57
e 37 58
e 37 59
e 37 60
e 37 62
e 37 65
e 37 67
e 37 68
e 37 70
e 37 71
e 37 74
e 37 76
e 37 77
e 37 78
e 37 80
e 37 81
e 37 82
e 37 86
e 37 87
e 37 88
e 37 89
e 37 91
e 37 94
e 37 96
e 37 98
e 37 99
e 37 100
e 38 41
e 38 43
e 38 44
e 38 45
e 38 47
e 38 48
e 38 49
e 38 52
e 38 53
e 38 54
e 38 55
e 38 56
e 38 57
e 38 59
e 38 61
e 38 64
e 38 65
e 38 66
e 38 67
e 38 68
e 38 69
e 38 76
e 38 78
e 38 79
e 38 81
e 38 83
e 38 84
e 38 85
e 38 89
e 38 90
e 38 91
e 38 94
e 38 96
e 38 97
e 38 100
e 39 44
e 39 46
e 39 47
e 39 48
e 39 49
e 39 50
e 39 52
e 39 53
e 39 54
e 39 56
e 39 57
e 39 58
e 39 61
e 39 62
e 39 63
e 39 66
e 39 68
e 39 69
e 39 70
e 39 72
e 39 73
e 39 77
e 39 79
e 39 80
e 39 84
e 39 87
e 39 88
e 39 89
e 39 90
e 39 91
e 39 92
e 39 93
e 39 96
e 39 100
e 40 41
e 40 42
e 40 43
e 40 44
e 40 46
e 40 48
e 40 49
e 40 53
e 40 55
e 40 60
e 40 62
e 40 66
e 40 68
e 40 70
e 40 71
e 40 73
e 40 77
e 40 79
e 40 80
e 40 81
e 40 82
e 40 84
e 40 86
e 40 93
e 40 95
e 40 97
e 40 98
e 40 99
e 40 100
e 41 42
e 41 43
e 41 44
e 41 46
e 41 53
e 41 56
e 41 58
e 41 59
e 41 60
e 41 62
e 41 67
e 41 69
e 41 71
e 41 73
e 41 75
e 41 77
e 41 78
e 41 80
e 41 81
e 41 84
e 41 87
e 41 89
e 41 90
e 41 92
e 41 94
e 41 96
e 41 100
e 42 43
e 42 44
e 42 45
e 42 46
e 42 48
e 42 50
e 42 51
e 42 52
e 42 53
e 42 56
e 42 57
e 42 63
e 42 64
e 42 65
e 42 68
e 42 70
e 42 71
e 42 72
e 42 73
e 42 75
e 42 76
e 42 79
e 42 85
e 42 87
e 42 89
e 42 92
e 42 93
e 42 95
e 42 96
e 42 97
e 42 100
e 43 45
e 43 47
e 43 52
e 43 53
e 43 54
e 43 55
e 43 56
e 43 57
e 43 60
e 43 62
e 43 63
e 43 64
e 43 65
e 43 66
e 43 69
e 43 75
e 43 77
e 43 78
e 43 79
e 43 81
e 43 83
e 43 84
e 43 85
e 43 86
e 43 87
e 43 92
e 43 98
e 43 100
e 44 45
e 44 46
e 44 49
e 44 50
e 44 51
e 44 52
e 44 53
e 44 55
e 44 56
e 44 58
e 44 59
e 44 60
e 44 61
e 44 62
e 44 65
e 44 66
e 44 67
e 44 68
e 44 69
e 44 70
e 44 71
e 44 72
e 44 73
e 44 74
e 44 76
e 44 77
e 44 78
e 44 80
e 44 81
e 44 82
e 44 83
e 44 85
e 44 86
e 44 87
e 44 88
e 44 93
e 44 94
e 44 99
e 45 46
e 45 47
e 45 51
e 45 52
e 45 53
e 45 54
e 45 63
e 45 65
e 45 68
e 45 70
e 45 71
e 45 73
e 45 74
e 45 75
e 45 77
e 45 78
e 45 79
e 45 80
e 45 85
e 45 88
e 45 89
e 45 91
e 45 92
e 45 93
e 45 94
e 45 96
e 45 98
e 45 99
e 46 48
e 46 49
e 46 50
e 46 51
e 46 52
e 46 53
e 46 54
e 46 55
e 46 56
e 46 57
e 46 61
e 46 63
e 46 65
e 46 66
e 46 71
e 46 73
e 46 78
e 46 79
e 46 81
e 46 82
e 46 85
e 46 86
e 46 89
e 46 91
e 46 92
e 46 93
e 46 97
e 46 98
e 46 99
e 47 50
e 47 51
e 47 52
e 47 56
e 47 58
e 47 59
e 47 62
e 47 63
e 47 64
e 47 69
e 47 71
e 47 72
e 47 77
e 47 80
e 47 82
e 47 83
e 47 84
e 47 85
e 47 86
e 47 87
e 47 89
e 47 90
e 47 91
e 47 92
e 47 94
e 47 96
e 47 97
e 47 98
e 47 100
e 48 50
e 48 51
e 48 53
e 48 55
e 48 57
e 48 59
e 48 60
e 48 61
e 48 65
e 48 66
e 48 67
e 48 70
e 48 72
e 48 74
e 48 76
e 48 77
e 48 80
e 48 81
e 48 82
e 48 83
e 48 84
e 48 85
e 48 87
e 48 92
e 48 95
e 48 97
e 48 98
e 48 99
e 49 50
e 49 51
e 49 52
e 49 53
e 49 55
e 49 56
e 49 58
e 49 61
e 49 63
e 49 67
e 49 69
e 49 70
e 49 71
e 49 74
e 49 77
e 49 78
e 49 79
e 49 80
e 49 81
e 49 82
e 49 85
e 49 86
e 49 89
e 49 92
e 49 94
e 49 95
e 49 96
e 50 51
e 50 52
e 50 53
e 50 54
e 50 56
e 50 57
e 50 59
e 50 61
e 50 62
e 50 64
e 50 67
e 50 68
e 50 70
e 50 74
e 50 75
e 50 77
e 50 78
e 50 79
e 50 81
e 50 82
e 50 85
e 50 89
e 50 91
e 50 92
e 50 94
e 50 95
e 50 96
e 50 97
e 50 98
e 50 100
e 51 52
e 51 53
e 51 55
e 51 56
e 51 57
e 51 59
e 51 60
e 51 62
e 51 64
e 51 67
e 51 68
e 51 69
e 51 71
e 51 72
e 51 73
e 51 78
e 51 79
e 51 80
e 51 81
e 51 82
e 51 83
e 51 85
e 51 87
e 51 91
e 51 92
e 51 93
e 51 95
e 51 96
e 51 97
e 51 99
e 51 100
e 52 54
e 52 56
e 52 58
e 52 61
e 52 62
e 52 63
e 52 64
e 52 68
e 52 69
e 52 70
e 52 73
e 52 74
e 52 75
e 52 76
e 52 78
e 52 81
e 52 82
e 52 83
e 52 84
e 52 86
e 52 87
e 52 89
e 52 91
e 52 93
e 52 95
e 52 96
e 52 99
e 53 54
e 53 55
e 53 60
e 53 61
e 53 64
e 53 66
e 53 67
e 53 68
e 53 70
e 53 72
e 53 73
e 53 78
e 53 81
e 53 83
e 53 84
e 53 85
e 53 87
e 53 92
e 53 94
e 53 95
e 53 96
e 53 97
e 53 98
e 53 99
e 53 100
e 54 56
e 54 57
e 54 60
e 54 62
e 54 63
e 54 65
e 54 66
e 54 68
e 54 69
e 54 71
e 54 74
e 54 75
e 54 76
e 54 77
e 54 78
e 54 81
e 54 82
e 54 83
e 54 84
e 54 85
e 54 86
e 54 88
e 54 89
e 54 90
e 54 91
e 54 93
e 54 95
e 54 96
e 54 100
e 55 59
e 55 61
e 55 65
e 55 69
e 55 70
e 55 71
e 55 72
e 55 73
e 55 75
e 55 76
e 55 79
e 55 80
e 55 82
e 55 83
e 55 84
e 55 85
e 55 87
e 55 90
e 55 91
e 55 95
e 55 96
e 55 98
e 55 100
e 56 57
e 56 61
e 56 62
e 56 64
e 56 65
e 56 66
e 56 67
e 56 72
e 56 74
e 56 75
e 56 77
e 56 78
e 56 80
e 56 82
e 56 84
e 56 86
e 56 87
e 56 88
e 56 90
e 56 92
e 56 93
e 56 95
e 56 97
e 56 100
e 57 61
e 57 63
e 57 64
e 57 65
e 57 67
e 57 68
e 57 70
e 57 75
e 57 76
e 57 77
e 57 81
e 57 83
e 57 84
e 57 85
e 57 87
e 57 89
e 57 91
e 57 93
e 57 94
e 57 95
e 57 96
e 57 97
e 57 98
e 57 99
e 58 59
e 58 60
e 58 61
e 58 62
e 58 63
e 58 64
e 58 66
e 58 69
e 58 71
e 58 74
e 58 75
e 58 76
e 58 79
e 58 80
e 58 81
e 58 82
e 58 84
e 58 86
e 58 87
e 58 88
e 58 90
e 58 91
e 58 92
e 58 93
e 58 94
e 58 98
e 59 61
e 59 64
e 59 68
e 59 71
e 59 77
e 59 78
e 59 79
e 59 80
e 59 81
e 59 84
e 59 85
e 59 87
e 59 89
e 59 90
e 59 91
e 59 92
e 59 93
e 59 94
e 59 99
e 59 100
e 60 61
e 60 62
e 60 63
e 60 64
e 60 65
e 60 66
e 60 70
e 60 71
e 60 74
e 60 75
e 60 76
e 60 77
e 60 80
e 60 81
e 60 82
e 60 85
e 60 86
e 60 87
e 60 88
e 60 91
e 60 94
e 60 98
e 60 99
e 61 62
e 61 67
e 61 68
e 61 70
e 61 73
e 61 74
e 61 75
e 61 77
e 61 78
e 61 80
e 61 82
e 61 85
e 61 86
e 61 87
e 61 88
e 61 89
e 61 90
e 61 91
e 61 92
e 61 93
e 61 95
e 61 96
e 61 97
e 61 98
e 61 100
e 62 65
e 62 69
e 62 71
e 62 72
e 62 76
e 62 78
e 62 79
e 62 82
e 62 83
e 62 87
e 62 88
e 62 98
e 62 100
e 63 67
e 63 68
e 63 71
e 63 72
e 63 74
e 63 76
e 63 78
e 63 83
e 63 84
e 63 89
e 63 91
e 63 94
e 63 95
e 63 96
e 63 98
e 63 100
e 64 67
e 64 68
e 64 71
e 64 72
e 64 73
e 64 74
e 64 75
e 64 77
e 64 79
e 64 80
e 64 81
e 64 82
e 64 86
e 64 87
e 64 89
e 64 94
e 64 97
e 64 99
e 64 100
e 65 67
e 65 69
e 65 71
e 65 74
e 65 77
e 65 82
e 65 83
e 65 85
e 65 89
e 65 90
e 65 91
e 65 92
e 65 96
e 65 97
e 65 99
e 65 100
e 66 67
e 66 68
e 66 69
e 66 70
e 66 71
e 66 72
e 66 74
e 66 75
e 66 76
e 66 78
e 66 79
e 66 80
e 66 81
e 66 82
e 66 84
e 66 85
e 66 92
e 66 93
e 66 94
e 66 95
e 66 96
e 66 97
e 66 100
e 67 68
e 67 70
e 67 71
e 67 72
e 67 73
e 67 75
e 67 76
e 67 78
e 67 79
e 67 83
e 67 87
e 67 89
e 67 91
e 67 92
e 67 93
e 67 94
e 67 96
e 67 98
e 67 99
e 67 100
e 68 69
e 68 72
e 68 73
e 68 74
e 68 76
e 68 77
e 68 78
e 68 79
e 68 81
e 68 84
e 68 85
e 68 87
e 68 89
e 68 91
e 68 93
e 68 94
e 68 96
e 68 97
e 68 98
e 69 71
e 69 72
e 69 73
e 69 74
e 69 75
e 69 78
e 69 79
e 69 81
e 69 82
e 69 83
e 69 85
e 69 86
e 69 87
e 69 88
e 69 89
e 69 92
e 69 93
e 69 95
e 69 98
e 70 76
e 70 77
e 70 81
e 70 82
e 70 83
e 70 85
e 70 87
e 70 88
e 70 90
e 70 92
e 70 94
e 70 96
e 70 98
e 70 99
e 70 100
e 71 72
e 71 75
e 71 76
e 71 77
e 71 78
e 71 79
e 71 80
e 71 83
e 71 85
e 71 87
e 71 88
e 71 91
e 71 92
e 71 94
e 71 96
e 71 97
e 71 98
e 71 99
e 72 74
e 72 76
e 72 78
e 72 79
e 72 80
e 72 81
e 72 82
e 72 83
e 72 84
e 72 86
e 72 87
e 72 88
e 72 90
e 72 91
e 72 92
e 72 93
e 72 95
e 72 96
e 73 75
e 73 76
e 73 77
e 73 79
e 73 80
e 73 81
e 73 82
e 73 83
e 73 86
e 73 88
e 73 91
e 73 92
e 73 93
e 73 95
e 73 99
e 73 100
e 74 75
e 74 76
e 74 77
e 74 79
e 74 80
e 74 81
e 74 82
e 74 83
e 74 86
e 74 89
e 74 90
e 74 91
e 74 92
e 74 95
e 74 96
e 74 97
e 75 76
e 75 78
e 75 79
e 75 81
e 75 83
e 75 84
e 75 85
e 75 87
e 75 92
e 75 94
e 75 99
e 76 77
e 76 78
e 76 80
e 76 84
e 76 85
e 76 87
e 76 89
e 76 90
e 76 91
e 76 94
e 76 95
e 76 96
e 76 99
e 76 100
e 77 79
e 77 81
e 77 82
e 77 85
e 77 86
e 77 87
e 77 88
e 77 89
e 77 90
e 77 96
e 77 99
e 77 100
e 78 79
e 78 80
e 78 81
e 78 82
e 78 83
e 78 84
e 78 86
e 78 88
e 78 90
e 78 94
e 78 96
e 78 97
e 78 98
e 78 99
e 79 80
e 79 81
e 79 82
e 79 84
e 79 86
e 79 90
e 79 92
e 79 95
e 79 97
e 79 98
e 79 99
e 79 100
e 80 83
e 80 84
e 80 85
e 80 86
e 80 89
e 80 90
e 80 91
e 80 93
e 80 95
e 80 98
e 80 99
e 80 100
e 81 82
e 81 83
e 81 89
e 81 90
e 81 91
e 81 92
e 81 94
e 81 97
e 81 98
e 81 99
e 82 83
e 82 84
e 82 86
e 82 89
e 82 91
e 82 92
e 82 93
e 82 95
e 82 97
e 82 99
e 83 85
e 83 86
e 83 88
e 83 89
e 83 90
e 83 92
e 83 95
e 83 98
e 83 99
e 83 100
e 84 88
e 84 89
e 84 90
e 84 91
e 84 93
e 84 94
e 84 95
e 84 97
e 84 98
e 84 99
e 84 100
e 85 86
e 85 88
e 85 89
e 85 92
e 85 93
e 85 96
e 85 97
e 85 99
e 86 87
e 86 89
e 86 92
e 86 93
e 86 94
e 86 96
e 86 97
e 86 98
e 86 99
e 86 100
e 87 88
e 87 89
e 87 91
e 87 92
e 87 93
e 87 95
e 87 98
e 87 99
e 87 100
e 88 89
e 88 91
e 88 93
e 88 95
e 88 96
e 88 100
e 89 90
e 89 92
e 89 95
e 89 96
e 89 98
e 89 99
e 89 100
e 90 92
e 90 95
e 90 96
e 90 99
e 91 94
e 91 95
e 91 96
e 91 98
e 92 93
e 92 94
e 92 96
e 92 97
e 92 98
e 92 99
e 93 96
e 93 99
e 94 96
e 94 97
e 94 98
e 94 100
e 95 99
e 95 100
e 96 97
e 97 98
e 97 99
e 98 99
e 99 100
